\ENCODING=ISO-8859-1
\Problem name: 

Maximize
 obj: x1 + x2 + x3 + x4 + x5 + x6 + x7 + x8 + x9 + x10 + x11 + x12 + x13 + x14
      + x15 + x16 + x17 + x18 + x19 + x20 + x21 + x22 + x23 + x24 + x25 + x26
      + x27 + x28 + x29 + x30 + x31 + x32 + x33 + x34 + x35 + x36 + x37 + x38
      + x39 + x40 + x41 + x42 + x43 + x44 + x45 + x46 + x47 + x48 + x49 + x50
      + x51 + x52 + x53 + x54 + x55 + x56 + x57 + x58 + x59 + x60 + x61 + x62
      + x63 + x64 + x65 + x66 + x67 + x68 + x69 + x70 + x71 + x72 + x73 + x74
      + x75 + x76 + x77 + x78 + x79 + x80 + x81 + x82 + x83 + x84 + x85 + x86
      + x87 + x88 + x89 + x90 + x91 + x92 + x93 + x94 + x95 + x96 + x97 + x98
      + x99 + x100 + x101 + x102 + x103 + x104 + x105 + x106 + x107 + x108
      + x109 + x110 + x111 + x112 + x113 + x114 + x115 + x116 + x117 + x118
      + x119 + x120 + x121 + x122 + x123 + x124 + x125 + x126 + x127 + x128
      + x129 + x130 + x131 + x132 + x133 + x134 + x135 + x136 + x137 + x138
      + x139 + x140 + x141 + x142 + x143 + x144 + x145 + x146 + x147 + x148
      + x149 + x150
Subject To
 clq1:   x27 + x59 + x145 <= 1
 clq2:   x28 + x119 + x123 <= 1
 clq3:   x17 + x33 + x73 + x139 <= 1
 clq4:   x5 + x27 + x123 + x136 <= 1
 clq5:   x87 + x94 + x100 + x147 <= 1
 clq6:   x76 + x121 + x136 <= 1
 clq7:   x45 + x63 + x65 + x121 <= 1
 clq8:   x46 + x85 + x109 + x139 <= 1
 clq9:   x18 + x69 + x121 + x127 <= 1
 clq10:  x24 + x36 + x68 + x110 <= 1
 clq11:  x14 + x25 + x135 + x144 <= 1
 clq12:  x14 + x20 + x104 + x133 <= 1
 clq13:  x36 + x66 + x117 <= 1
 clq14:  x19 + x34 + x69 + x81 <= 1
 clq15:  x34 + x75 + x109 + x120 + x127 <= 1
 clq16:  x61 + x69 + x121 + x147 <= 1
 clq17:  x24 + x41 + x66 <= 1
 clq18:  x22 + x74 + x84 <= 1
 clq19:  x17 + x57 + x75 <= 1
 clq20:  x31 + x86 + x146 <= 1
 clq21:  x23 + x86 + x140 + x141 <= 1
 clq22:  x57 + x63 + x88 <= 1
 clq23:  x97 + x100 + x101 + x112 <= 1
 clq24:  x49 + x68 + x133 <= 1
 clq25:  x77 + x91 + x117 <= 1
 clq26:  x37 + x48 + x55 + x65 <= 1
 clq27:  x20 + x39 + x46 <= 1
 clq28:  x19 + x24 + x145 <= 1
 clq29:  x28 + x42 + x79 <= 1
 clq30:  x1 + x11 + x37 + x127 <= 1
 clq31:  x40 + x50 + x85 + x138 <= 1
 clq32:  x25 + x72 + x135 + x144 <= 1
 clq33:  x25 + x88 + x104 + x127 <= 1
 clq34:  x14 + x20 + x39 + x98 + x132 <= 1
 clq35:  x43 + x107 + x137 <= 1
 clq36:  x49 + x72 + x108 + x116 <= 1
 clq37:  x39 + x41 + x66 <= 1
 clq38:  x41 + x48 + x105 <= 1
 clq39:  x93 + x114 + x121 <= 1
 clq40:  x5 + x44 + x62 + x146 <= 1
 clq41:  x32 + x77 + x132 <= 1
 clq42:  x23 + x35 + x82 <= 1
 clq43:  x18 + x69 + x81 + x111 <= 1
 clq44:  x37 + x42 + x93 + x108 <= 1
 clq45:  x57 + x88 + x99 + x130 <= 1
 clq46:  x55 + x107 + x117 + x143 <= 1
 clq47:  x9 + x68 + x97 + x131 <= 1
 clq48:  x18 + x28 + x66 + x131 + x143 <= 1
 clq49:  x49 + x52 + x80 + x122 <= 1
 clq50:  x11 + x33 + x111 + x120 <= 1
 clq51:  x10 + x12 + x75 <= 1
 clq52:  x4 + x21 + x64 <= 1
 clq53:  x48 + x57 + x79 <= 1
 clq54:  x14 + x95 + x114 <= 1
 clq55:  x33 + x57 + x109 <= 1
 clq56:  x21 + x47 + x64 + x143 + x145 <= 1
 clq57:  x10 + x12 + x118 <= 1
 clq58:  x3 + x44 + x49 + x139 <= 1
 clq59:  x52 + x80 + x110 <= 1
 clq60:  x34 + x40 + x56 + x87 + x90 <= 1
 clq61:  x29 + x47 + x97 <= 1
 clq62:  x6 + x11 + x45 + x58 <= 1
 clq63:  x62 + x105 + x150 <= 1
 clq64:  x9 + x69 + x150 <= 1
 clq65:  x101 + x102 + x106 <= 1
 clq66:  x16 + x58 + x98 + x127 <= 1
 clq67:  x31 + x114 + x142 <= 1
 clq68:  x30 + x60 + x75 + x136 <= 1
 clq69:  x105 + x119 + x148 <= 1
 clq70:  x30 + x104 + x133 <= 1
 clq71:  x61 + x83 + x121 + x138 <= 1
 clq72:  x56 + x98 + x130 + x137 <= 1
 clq73:  x25 + x31 + x125 <= 1
 clq74:  x65 + x111 + x120 + x137 <= 1
 clq75:  x20 + x105 + x123 + x141 <= 1
 clq76:  x52 + x82 + x119 + x146 <= 1
 clq77:  x64 + x95 + x96 <= 1
 clq78:  x62 + x91 + x144 <= 1
 clq79:  x49 + x100 + x122 <= 1
 clq80:  x25 + x55 + x104 + x143 <= 1
 clq81:  x62 + x74 + x90 + x144 <= 1
 clq82:  x16 + x50 + x73 + x138 <= 1
 clq83:  x11 + x58 + x89 + x95 <= 1
 clq84:  x8 + x84 + x123 <= 1
 clq85:  x52 + x59 + x101 + x140 <= 1
 clq86:  x1 + x79 + x126 <= 1
 clq87:  x8 + x19 + x32 <= 1
 clq88:  x67 + x92 + x131 + x137 <= 1
 clq89:  x82 + x129 + x146 <= 1
 clq90:  x13 + x20 + x74 + x118 <= 1
 clq91:  x50 + x137 + x141 <= 1
 clq92:  x61 + x69 + x103 + x116 <= 1
 clq93:  x44 + x50 + x57 + x128 <= 1
 clq94:  x40 + x55 + x74 + x90 + x118 <= 1
 clq95:  x5 + x89 + x94 <= 1
 clq96:  x1 + x62 + x74 + x93 <= 1
 clq97:  x62 + x88 + x89 <= 1
 clq98:  x65 + x85 + x91 + x103 <= 1
 clq99:  x11 + x45 + x89 + x94 <= 1
 clq100: x31 + x41 + x103 + x116 + x125 <= 1
 clq101: x35 + x57 + x68 + x99 <= 1
 clq102: x16 + x46 + x58 <= 1
 clq103: x23 + x85 + x103 + x148 <= 1
 clq104: x56 + x80 + x82 <= 1
 clq105: x27 + x51 + x133 + x134 <= 1
 clq106: x4 + x13 + x147 <= 1
 clq107: x10 + x92 + x110 <= 1
 clq108: x104 + x145 + x149 <= 1
 clq109: x34 + x80 + x81 <= 1
 clq110: x41 + x108 + x143 <= 1
 clq111: x2 + x57 + x102 + x116 <= 1
 clq112: x26 + x56 + x61 + x121 <= 1
 clq113: x89 + x113 + x149 <= 1
 clq114: x36 + x88 + x110 <= 1
 clq115: x2 + x35 + x57 + x102 + x114 <= 1
 clq116: x30 + x56 + x76 <= 1
 clq117: x9 + x48 + x149 <= 1
 clq118: x33 + x73 + x78 + x140 <= 1
 clq119: x56 + x63 + x88 + x110 <= 1
 clq120: x37 + x93 + x99 + x105 <= 1
 clq121: x37 + x45 + x64 + x65 <= 1
 clq122: x1 + x21 + x58 + x142 <= 1
 clq123: x52 + x54 + x101 + x116 <= 1
 clq124: x12 + x35 + x107 <= 1
 clq125: x55 + x107 + x132 <= 1
 clq126: x10 + x21 + x25 + x32 <= 1
 clq127: x36 + x117 + x127 <= 1
 clq128: x30 + x62 + x89 <= 1
 clq129: x40 + x118 + x150 <= 1
 clq130: x34 + x68 + x131 <= 1
 clq131: x24 + x70 + x100 <= 1
 clq132: x8 + x49 + x93 <= 1
 clq133: x3 + x56 + x70 + x86 <= 1
 clq134: x41 + x61 + x70 <= 1
 clq135: x15 + x64 + x134 <= 1
 clq136: x100 + x102 + x136 <= 1
 clq137: x9 + x26 + x118 <= 1
 clq138: x13 + x83 + x100 + x140 <= 1
 clq139: x94 + x97 + x131 <= 1
 clq140: x72 + x107 + x144 + x147 <= 1
 clq141: x20 + x108 + x113 <= 1
 clq142: x87 + x100 + x109 + x122 <= 1
 clq143: x41 + x96 + x126 + x148 <= 1
 clq144: x73 + x74 + x132 <= 1
 clq145: x2 + x35 + x114 + x121 <= 1
 clq146: x56 + x98 + x139 <= 1
 clq147: x35 + x36 + x42 + x83 <= 1
 clq148: x22 + x29 + x47 <= 1
 clq149: x11 + x46 + x58 <= 1
 clq150: x25 + x38 + x53 <= 1
 clq151: x52 + x54 + x89 <= 1
 clq152: x6 + x11 + x102 <= 1
 clq153: x46 + x64 + x105 + x150 <= 1
 clq154: x26 + x32 + x114 + x121 + x147 <= 1
 clq155: x27 + x72 + x129 <= 1
 clq156: x80 + x96 + x104 + x149 <= 1
 clq157: x32 + x120 + x146 <= 1
 clq158: x5 + x66 + x98 + x104 <= 1
 clq159: x18 + x28 + x66 + x122 <= 1
 clq160: x82 + x96 + x119 + x125 <= 1
 clq161: x100 + x101 + x115 + x149 <= 1
 clq162: x17 + x50 + x57 + x102 <= 1
 clq163: x32 + x114 + x115 + x142 <= 1
 clq164: x37 + x39 + x48 <= 1
 clq165: x58 + x95 + x110 <= 1
 clq166: x78 + x106 + x126 <= 1
 clq167: x50 + x71 + x138 <= 1
 clq168: x25 + x44 + x109 + x139 <= 1
 clq169: x5 + x10 + x25 + x44 <= 1
 clq170: x14 + x20 + x74 + x98 + x132 <= 1
 clq171: x79 + x86 + x110 <= 1
 clq172: x31 + x68 + x71 + x110 <= 1
 clq173: x31 + x71 + x86 + x138 <= 1
 clq174: x11 + x37 + x55 + x90 <= 1
 clq175: x1 + x62 + x93 + x114 <= 1
 clq176: x5 + x53 + x94 + x141 <= 1
 clq177: x2 + x5 + x141 <= 1
 clq178: x96 + x100 + x149 <= 1
 clq179: x46 + x78 + x85 + x99 <= 1
 clq180: x16 + x32 + x66 <= 1
 clq181: x111 + x115 + x116 <= 1
 clq182: x43 + x51 + x99 + x119 <= 1
 clq183: x2 + x39 + x102 + x116 <= 1
 clq184: x9 + x50 + x137 <= 1
 clq185: x25 + x38 + x100 <= 1
 clq186: x9 + x17 + x80 + x149 <= 1
 clq187: x28 + x63 + x87 <= 1
 clq188: x45 + x64 + x94 + x105 <= 1
 clq189: x32 + x50 + x105 + x142 <= 1
 clq190: x16 + x86 + x108 + x138 <= 1
 clq191: x34 + x75 + x91 + x117 <= 1
 clq192: x16 + x42 + x97 <= 1
 clq193: x19 + x33 + x64 + x84 <= 1
 clq194: x24 + x35 + x58 + x124 <= 1
 clq195: x13 + x23 + x140 <= 1
 clq196: x33 + x113 + x120 + x125 <= 1
 clq197: x11 + x19 + x33 + x38 <= 1
 clq198: x45 + x64 + x96 + x127 <= 1
 clq199: x7 + x100 + x137 + x147 <= 1
 clq200: x20 + x102 + x136 <= 1
 clq201: x6 + x9 + x87 <= 1
 clq202: x47 + x56 + x111 <= 1
 clq203: x52 + x65 + x92 <= 1
 clq204: x8 + x82 + x117 <= 1
 clq205: x51 + x87 + x94 <= 1
 clq206: x21 + x32 + x114 + x142 <= 1
 clq207: x12 + x35 + x39 + x142 <= 1
 clq208: x14 + x17 + x126 <= 1
 clq209: x83 + x89 + x118 + x131 <= 1
 clq210: x5 + x87 + x103 + x104 <= 1
 clq211: x32 + x67 + x132 <= 1
 clq212: x66 + x67 + x131 <= 1
 clq213: x26 + x72 + x74 + x85 + x103 <= 1
 clq214: x8 + x18 + x55 + x139 <= 1
 clq215: x20 + x71 + x104 <= 1
 clq216: x48 + x88 + x104 + x127 <= 1
 clq217: x30 + x71 + x104 + x128 <= 1
 clq218: x60 + x98 + x130 <= 1
 clq219: x4 + x18 + x28 <= 1
 clq220: x25 + x100 + x129 <= 1
 clq221: x106 + x119 + x125 + x126 <= 1
 clq222: x43 + x119 + x125 + x140 <= 1
 clq223: x102 + x116 + x131 <= 1
 clq224: x47 + x109 + x143 <= 1
 clq225: x4 + x51 + x57 <= 1
 clq226: x86 + x93 + x110 + x131 + x134 <= 1
 clq227: x31 + x41 + x70 <= 1
 clq228: x120 + x143 + x146 <= 1
 clq229: x35 + x40 + x45 + x80 <= 1
 clq230: x22 + x56 + x80 <= 1
 clq231: x24 + x35 + x120 + x142 <= 1
 clq232: x4 + x57 + x88 + x130 <= 1
 clq233: x28 + x115 + x122 + x144 <= 1
 clq234: x40 + x97 + x119 <= 1
 clq235: x6 + x18 + x45 + x94 <= 1
 clq236: x5 + x105 + x123 + x136 <= 1
 clq237: x34 + x69 + x128 <= 1
 clq238: x71 + x84 + x97 <= 1
 clq239: x31 + x41 + x105 <= 1
 clq240: x3 + x64 + x87 + x94 <= 1
 clq241: x25 + x44 + x109 + x135 <= 1
 clq242: x66 + x71 + x104 <= 1
 clq243: x26 + x51 + x126 <= 1
 clq244: x13 + x47 + x114 + x138 <= 1
 clq245: x47 + x70 + x106 + x128 <= 1
 clq246: x26 + x114 + x145 <= 1
 clq247: x41 + x96 + x125 + x126 <= 1
 clq248: x27 + x34 + x116 <= 1
 clq249: x27 + x100 + x110 + x129 <= 1
 clq250: x46 + x131 + x134 + x143 <= 1
 clq251: x71 + x96 + x134 <= 1
 clq252: x6 + x58 + x142 <= 1
 clq253: x16 + x58 + x124 + x127 <= 1
 clq254: x59 + x78 + x107 <= 1
 clq255: x16 + x35 + x120 + x125 <= 1
 clq256: x65 + x129 + x137 <= 1
 clq257: x12 + x84 + x123 <= 1
 clq258: x2 + x35 + x39 + x121 <= 1
 clq259: x8 + x42 + x54 <= 1
 clq260: x32 + x88 + x137 <= 1
 clq261: x55 + x118 + x131 + x134 <= 1
 clq262: x39 + x48 + x111 + x118 <= 1
 clq263: x47 + x56 + x139 + x145 <= 1
 clq264: x21 + x47 + x102 + x114 <= 1
 clq265: x3 + x33 + x39 + x84 <= 1
 clq266: x10 + x60 + x97 <= 1
 clq267: x15 + x30 + x37 <= 1
 clq268: x9 + x38 + x48 <= 1
 clq269: x10 + x15 + x30 + x72 <= 1
 clq270: x35 + x45 + x76 + x80 + x112 <= 1
 clq271: x6 + x48 + x103 <= 1
 clq272: x15 + x49 + x72 + x129 <= 1
 clq273: x22 + x85 + x103 + x108 <= 1
 clq274: x15 + x24 + x36 <= 1
 clq275: x19 + x26 + x98 + x113 <= 1
 clq276: x33 + x73 + x78 + x139 <= 1
 clq277: x71 + x74 + x84 <= 1
 clq278: x53 + x63 + x126 + x148 <= 1
 clq279: x40 + x130 + x150 <= 1
 clq280: x26 + x73 + x77 + x117 <= 1
 clq281: x2 + x4 + x88 + x92 <= 1
 clq282: x24 + x35 + x114 + x138 <= 1
 clq283: x50 + x124 + x128 + x144 <= 1
 clq284: x53 + x56 + x97 <= 1
 clq285: x17 + x83 + x100 + x122 <= 1
 clq286: x11 + x17 + x94 <= 1
 clq287: x90 + x96 + x111 <= 1
 clq288: x6 + x62 + x91 <= 1
 clq289: x73 + x92 + x133 <= 1
 clq290: x26 + x125 + x126 + x140 <= 1
 clq291: x76 + x101 + x108 + x142 <= 1
 clq292: x12 + x95 + x113 + x147 <= 1
 clq293: x59 + x96 + x119 <= 1
 clq294: x2 + x102 + x113 <= 1
 clq295: x10 + x12 + x97 <= 1
 clq296: x13 + x33 + x69 + x147 <= 1
 clq297: x93 + x101 + x108 + x141 <= 1
 clq298: x58 + x91 + x117 <= 1
 clq299: x71 + x82 + x96 <= 1
 clq300: x18 + x29 + x57 + x127 <= 1
 clq301: x71 + x87 + x104 + x129 <= 1
 clq302: x41 + x96 + x111 <= 1
 clq303: x71 + x82 + x135 <= 1
 clq304: x31 + x90 + x118 + x125 <= 1
 clq305: x48 + x54 + x57 + x116 <= 1
 clq306: x13 + x61 + x88 + x100 <= 1
 clq307: x15 + x18 + x149 <= 1
 clq308: x91 + x96 + x126 <= 1
 clq309: x23 + x82 + x103 + x150 <= 1
 clq310: x16 + x35 + x102 <= 1
 clq311: x83 + x97 + x100 + x136 <= 1
 clq312: x47 + x143 + x144 + x145 <= 1
 clq313: x61 + x68 + x75 + x106 <= 1
 clq314: x100 + x101 + x108 <= 1
 clq315: x53 + x56 + x70 + x124 <= 1
 clq316: x100 + x109 + x122 + x135 <= 1
 clq317: x43 + x65 + x85 + x120 <= 1
 clq318: x27 + x34 + x81 + x129 <= 1
 clq319: x13 + x100 + x136 + x145 <= 1
 clq320: x1 + x74 + x93 + x145 <= 1
 clq321: x27 + x40 + x104 <= 1
 clq322: x67 + x81 + x135 <= 1
 clq323: x18 + x98 + x127 <= 1
 clq324: x42 + x67 + x93 <= 1
 clq325: x43 + x81 + x137 <= 1
 clq326: x9 + x17 + x76 + x80 <= 1
 clq327: x19 + x24 + x36 + x68 <= 1
 clq328: x45 + x91 + x94 + x112 <= 1
 clq329: x48 + x65 + x111 + x142 <= 1
 clq330: x72 + x85 + x99 + x111 <= 1
 clq331: x21 + x64 + x96 + x134 + x143 <= 1
 clq332: x74 + x118 + x129 <= 1
 clq333: x17 + x21 + x32 + x146 <= 1
 clq334: x75 + x93 + x109 <= 1
 clq335: x21 + x29 + x134 <= 1
 clq336: x79 + x87 + x122 + x148 <= 1
 clq337: x31 + x41 + x125 + x126 <= 1
 clq338: x46 + x93 + x131 + x134 <= 1
 clq339: x13 + x74 + x84 <= 1
 clq340: x26 + x51 + x61 + x133 <= 1
 clq341: x2 + x6 + x91 <= 1
 clq342: x15 + x17 + x42 + x146 <= 1
 clq343: x11 + x37 + x45 + x120 + x127 <= 1
 clq344: x35 + x81 + x84 <= 1
 clq345: x12 + x113 + x149 <= 1
 clq346: x11 + x45 + x58 + x119 <= 1
 clq347: x61 + x67 + x68 + x115 + x131 <= 1
 clq348: x100 + x102 + x107 <= 1
 clq349: x56 + x63 + x82 + x87 <= 1
 clq350: x19 + x32 + x53 + x120 <= 1
 clq351: x72 + x74 + x90 + x106 <= 1
 clq352: x1 + x2 + x22 + x114 <= 1
 clq353: x29 + x44 + x57 <= 1
 clq354: x14 + x74 + x86 + x146 <= 1
 clq355: x79 + x98 + x113 + x119 <= 1
 clq356: x20 + x80 + x94 + x112 <= 1
 clq357: x23 + x49 + x93 <= 1
 clq358: x2 + x74 + x90 <= 1
 clq359: x1 + x2 + x116 + x134 <= 1
 clq360: x35 + x124 + x128 <= 1
 clq361: x2 + x4 + x57 + x75 <= 1
 clq362: x52 + x54 + x76 + x136 <= 1
 clq363: x57 + x71 + x130 + x141 <= 1
 clq364: x88 + x99 + x100 + x108 + x119 <= 1
 clq365: x53 + x114 + x148 <= 1
 clq366: x61 + x103 + x115 + x116 <= 1
 clq367: x7 + x65 + x92 + x137 <= 1
 clq368: x48 + x78 + x140 <= 1
 clq369: x50 + x72 + x83 + x144 <= 1
 clq370: x100 + x101 + x102 + x112 <= 1
 clq371: x3 + x9 + x66 + x80 <= 1
 clq372: x13 + x70 + x98 <= 1
 clq373: x8 + x21 + x48 + x142 <= 1
 clq374: x35 + x45 + x65 + x80 <= 1
 clq375: x15 + x59 + x120 + x142 <= 1
 clq376: x73 + x112 + x139 <= 1
 clq377: x11 + x58 + x70 + x127 <= 1
 clq378: x41 + x107 + x117 + x143 <= 1
 clq379: x34 + x63 + x87 + x109 <= 1
 clq380: x16 + x20 + x98 <= 1
 clq381: x18 + x40 + x45 + x66 <= 1
 clq382: x5 + x47 + x49 <= 1
 clq383: x100 + x103 + x107 <= 1
 clq384: x50 + x73 + x92 + x137 <= 1
 clq385: x3 + x70 + x115 + x134 <= 1
 clq386: x13 + x47 + x114 + x145 <= 1
 clq387: x19 + x34 + x64 + x87 <= 1
 clq388: x67 + x68 + x87 + x111 <= 1
 clq389: x5 + x92 + x101 + x149 <= 1
 clq390: x50 + x72 + x85 + x103 + x144 <= 1
 clq391: x29 + x39 + x111 + x116 <= 1
 clq392: x11 + x37 + x45 + x128 <= 1
 clq393: x38 + x130 + x137 <= 1
 clq394: x33 + x41 + x64 <= 1
 clq395: x23 + x95 + x146 + x148 <= 1
 clq396: x69 + x123 + x141 <= 1
 clq397: x43 + x101 + x140 + x149 <= 1
 clq398: x62 + x93 + x101 + x141 <= 1
 clq399: x55 + x61 + x67 + x81 <= 1
 clq400: x11 + x46 + x78 + x126 <= 1
 clq401: x47 + x49 + x72 <= 1
 clq402: x6 + x72 + x135 <= 1
 clq403: x57 + x68 + x75 <= 1
 clq404: x2 + x22 + x33 + x88 <= 1
 clq405: x3 + x42 + x86 + x111 <= 1
 clq406: x61 + x69 + x103 + x148 <= 1
 clq407: x32 + x67 + x137 <= 1
 clq408: x26 + x61 + x122 + x133 <= 1
 clq409: x8 + x101 + x113 <= 1
 clq410: x68 + x87 + x95 + x129 <= 1
 clq411: x17 + x21 + x80 + x146 <= 1
 clq412: x119 + x146 + x148 <= 1
 clq413: x39 + x63 + x111 + x142 <= 1
 clq414: x19 + x33 + x73 + x117 <= 1
 clq415: x79 + x119 + x126 + x148 <= 1
 clq416: x33 + x69 + x109 + x147 <= 1
 clq417: x29 + x45 + x105 <= 1
 clq418: x2 + x33 + x39 + x111 <= 1
 clq419: x24 + x122 + x148 <= 1
 clq420: x42 + x54 + x76 + x86 <= 1
 clq421: x26 + x61 + x72 + x147 <= 1
 clq422: x25 + x63 + x109 <= 1
 clq423: x16 + x50 + x52 <= 1
 clq424: x3 + x32 + x112 <= 1
 clq425: x16 + x30 + x35 + x76 <= 1
 clq426: x5 + x10 + x25 + x123 <= 1
 clq427: x11 + x90 + x109 + x127 <= 1
 clq428: x1 + x102 + x136 <= 1
 clq429: x76 + x85 + x125 <= 1
 clq430: x101 + x108 + x116 <= 1
 clq431: x71 + x88 + x104 + x127 <= 1
 clq432: x35 + x77 + x81 <= 1
 clq433: x35 + x42 + x82 + x108 <= 1
 clq434: x47 + x104 + x143 + x145 <= 1
 clq435: x60 + x74 + x142 <= 1
 clq436: x8 + x27 + x104 <= 1
 clq437: x55 + x108 + x123 + x138 <= 1
 clq438: x28 + x58 + x139 <= 1
 clq439: x10 + x72 + x145 <= 1
 clq440: x31 + x70 + x71 + x86 <= 1
 clq441: x80 + x82 + x135 <= 1
 clq442: x8 + x9 + x144 <= 1
 clq443: x77 + x94 + x118 <= 1
 clq444: x98 + x130 + x134 <= 1
 clq445: x42 + x76 + x95 + x132 <= 1
 clq446: x47 + x67 + x139 <= 1
 clq447: x53 + x120 + x141 <= 1
 clq448: x29 + x93 + x105 <= 1
 clq449: x15 + x57 + x129 + x146 <= 1
 clq450: x12 + x46 + x113 + x150 <= 1
 clq451: x53 + x83 + x97 + x101 <= 1
 clq452: x72 + x88 + x99 + x144 <= 1
 clq453: x14 + x25 + x109 + x135 <= 1
 clq454: x7 + x98 + x130 + x137 <= 1
 clq455: x94 + x138 + x147 <= 1
 clq456: x9 + x35 + x76 + x80 <= 1
 clq457: x14 + x24 + x35 + x36 <= 1
 clq458: x15 + x37 + x144 <= 1
 clq459: x73 + x104 + x137 <= 1
 clq460: x56 + x76 + x80 + x142 <= 1
 clq461: x34 + x120 + x127 + x131 <= 1
 clq462: x9 + x66 + x71 + x110 <= 1
 clq463: x5 + x126 + x136 <= 1
 clq464: x73 + x100 + x120 + x127 <= 1
 clq465: x5 + x10 + x60 + x92 <= 1
 clq466: x90 + x111 + x118 <= 1
 clq467: x17 + x62 + x73 + x74 <= 1
 clq468: x39 + x94 + x97 <= 1
 clq469: x95 + x110 + x116 <= 1
 clq470: x53 + x59 + x107 + x143 <= 1
 clq471: x5 + x90 + x101 + x104 <= 1
 clq472: x4 + x25 + x26 <= 1
 clq473: x1 + x15 + x58 + x127 <= 1
 clq474: x1 + x41 + x116 + x125 <= 1
 clq475: x56 + x90 + x130 + x137 <= 1
 clq476: x11 + x104 + x135 <= 1
 clq477: x25 + x88 + x119 + x125 + x144 <= 1
 clq478: x94 + x96 + x148 <= 1
 clq479: x81 + x96 + x134 <= 1
 clq480: x53 + x59 + x120 + x143 <= 1
 clq481: x6 + x18 + x72 + x98 <= 1
 clq482: x76 + x86 + x99 + x108 <= 1
 clq483: x53 + x70 + x99 <= 1
 clq484: x71 + x76 + x86 <= 1
 clq485: x48 + x105 + x109 <= 1
 clq486: x57 + x68 + x71 + x129 <= 1
 clq487: x68 + x71 + x110 + x129 <= 1
 clq488: x1 + x10 + x126 <= 1
 clq489: x56 + x78 + x110 <= 1
 clq490: x35 + x64 + x65 + x77 <= 1
 clq491: x5 + x77 + x87 + x94 <= 1
 clq492: x37 + x136 + x147 <= 1
 clq493: x21 + x96 + x148 <= 1
 clq494: x89 + x117 + x130 + x149 <= 1
 clq495: x70 + x71 + x86 + x128 <= 1
 clq496: x26 + x39 + x46 + x85 <= 1
 clq497: x12 + x79 + x110 <= 1
 clq498: x91 + x144 + x145 <= 1
 clq499: x34 + x64 + x87 + x133 <= 1
 clq500: x2 + x8 + x49 <= 1
 clq501: x14 + x104 + x135 + x149 <= 1
 clq502: x7 + x19 + x84 <= 1
 clq503: x49 + x80 + x94 + x96 <= 1
 clq504: x47 + x104 + x128 + x150 <= 1
 clq505: x58 + x127 + x141 <= 1
 clq506: x5 + x87 + x92 <= 1
 clq507: x29 + x57 + x72 + x116 <= 1
 clq508: x56 + x77 + x87 <= 1
 clq509: x34 + x70 + x89 <= 1
 clq510: x8 + x19 + x117 <= 1
 clq511: x13 + x62 + x133 <= 1
 clq512: x27 + x72 + x136 + x145 <= 1
 clq513: x26 + x42 + x51 + x65 <= 1
 clq514: x67 + x101 + x139 <= 1
 clq515: x68 + x95 + x140 <= 1
 clq516: x72 + x111 + x142 <= 1
 clq517: x71 + x76 + x101 <= 1
 clq518: x15 + x24 + x148 <= 1
 clq519: x21 + x47 + x114 + x143 + x145 <= 1
 clq520: x3 + x30 + x56 <= 1
 clq521: x33 + x58 + x139 <= 1
 clq522: x74 + x103 + x115 + x144 <= 1
 clq523: x60 + x85 + x109 + x122 <= 1
 clq524: x73 + x127 + x132 <= 1
 clq525: x34 + x127 + x132 <= 1
 clq526: x10 + x12 + x21 + x113 <= 1
 clq527: x30 + x53 + x56 <= 1
 clq528: x3 + x28 + x66 <= 1
 clq529: x42 + x51 + x76 <= 1
 clq530: x2 + x4 + x120 + x141 <= 1
 clq531: x24 + x35 + x45 + x120 <= 1
 clq532: x18 + x103 + x139 + x150 <= 1
 clq533: x13 + x33 + x115 <= 1
 clq534: x68 + x75 + x136 + x143 <= 1
 clq535: x3 + x112 + x129 <= 1
 clq536: x14 + x17 + x21 + x135 <= 1
 clq537: x49 + x73 + x121 + x139 <= 1
 clq538: x8 + x93 + x101 + x106 + x141 <= 1
 clq539: x45 + x82 + x96 + x119 <= 1
 clq540: x45 + x63 + x87 + x109 <= 1
 clq541: x13 + x61 + x100 + x147 <= 1
 clq542: x4 + x15 + x64 <= 1
 clq543: x8 + x42 + x113 <= 1
 clq544: x53 + x57 + x79 + x81 <= 1
 clq545: x42 + x63 + x65 + x111 <= 1
 clq546: x119 + x131 + x137 <= 1
 clq547: x51 + x60 + x73 + x78 <= 1
 clq548: x12 + x46 + x49 <= 1
 clq549: x28 + x43 + x122 <= 1
 clq550: x41 + x116 + x117 <= 1
 clq551: x75 + x114 + x117 + x143 <= 1
 clq552: x8 + x48 + x55 + x139 <= 1
 clq553: x93 + x121 + x130 + x149 <= 1
 clq554: x88 + x89 + x100 + x108 <= 1
 clq555: x71 + x127 + x138 <= 1
 clq556: x32 + x50 + x137 <= 1
 clq557: x61 + x100 + x103 + x115 <= 1
 clq558: x61 + x67 + x101 + x115 <= 1
 clq559: x12 + x45 + x66 + x67 <= 1
 clq560: x10 + x72 + x103 <= 1
 clq561: x1 + x28 + x58 <= 1
 clq562: x19 + x31 + x68 + x75 <= 1
 clq563: x27 + x59 + x78 <= 1
 clq564: x15 + x26 + x72 <= 1
 clq565: x27 + x83 + x100 + x136 <= 1
 clq566: x59 + x114 + x129 + x142 <= 1
 clq567: x32 + x95 + x132 <= 1
 clq568: x12 + x115 + x122 + x144 <= 1
 clq569: x11 + x19 + x33 + x78 + x90 <= 1
 clq570: x13 + x66 + x98 + x110 <= 1
 clq571: x73 + x81 + x100 + x137 <= 1
 clq572: x3 + x94 + x111 + x112 <= 1
 clq573: x56 + x91 + x145 <= 1
 clq574: x8 + x104 + x137 <= 1
 clq575: x18 + x28 + x131 + x139 <= 1
 clq576: x17 + x55 + x81 <= 1
 clq577: x8 + x106 + x143 <= 1
 clq578: x9 + x60 + x118 <= 1
 clq579: x33 + x39 + x84 + x132 <= 1
 clq580: x26 + x73 + x112 + x128 <= 1
 clq581: x52 + x67 + x81 + x111 <= 1
 clq582: x24 + x27 + x36 + x110 <= 1
 clq583: x52 + x80 + x149 <= 1
 clq584: x39 + x86 + x93 + x110 <= 1
 clq585: x27 + x52 + x67 + x81 <= 1
 clq586: x77 + x91 + x132 <= 1
 clq587: x80 + x94 + x110 <= 1
 clq588: x46 + x64 + x77 + x137 <= 1
 clq589: x21 + x32 + x40 + x114 <= 1
 clq590: x47 + x56 + x110 + x145 <= 1
 clq591: x60 + x67 + x98 + x139 <= 1
 clq592: x16 + x73 + x127 + x138 <= 1
 clq593: x2 + x33 + x135 <= 1
 clq594: x25 + x80 + x94 + x104 <= 1
 clq595: x75 + x98 + x104 + x127 <= 1
 clq596: x58 + x59 + x98 + x119 <= 1
 clq597: x19 + x47 + x52 + x64 + x150 <= 1
 clq598: x1 + x2 + x114 + x145 <= 1
 clq599: x88 + x92 + x99 <= 1
 clq600: x86 + x110 + x120 + x131 <= 1
 clq601: x8 + x54 + x144 <= 1
 clq602: x30 + x94 + x104 + x137 <= 1
 clq603: x58 + x115 + x122 + x142 <= 1
 clq604: x13 + x60 + x136 + x145 <= 1
 clq605: x4 + x15 + x18 + x57 <= 1
 clq606: x20 + x53 + x107 + x141 <= 1
 clq607: x67 + x81 + x115 + x129 <= 1
 clq608: x18 + x29 + x72 + x111 <= 1
 clq609: x26 + x32 + x99 <= 1
 clq610: x29 + x59 + x78 + x140 <= 1
 clq611: x10 + x32 + x66 + x122 <= 1
 clq612: x23 + x55 + x118 + x134 <= 1
 clq613: x55 + x60 + x74 + x78 <= 1
 clq614: x24 + x46 + x58 <= 1
 clq615: x63 + x113 + x148 <= 1
 clq616: x9 + x60 + x68 + x97 <= 1
 clq617: x14 + x50 + x144 <= 1
 clq618: x5 + x49 + x53 + x94 <= 1
 clq619: x34 + x46 + x109 <= 1
 clq620: x23 + x24 + x148 <= 1
 clq621: x29 + x76 + x140 <= 1
 clq622: x18 + x38 + x100 <= 1
 clq623: x16 + x27 + x124 + x129 <= 1
 clq624: x13 + x31 + x118 + x138 <= 1
 clq625: x35 + x82 + x84 + x108 <= 1
 clq626: x22 + x23 + x85 + x103 + x144 <= 1
 clq627: x17 + x42 + x100 + x146 <= 1
 clq628: x16 + x124 + x125 + x127 <= 1
 clq629: x11 + x45 + x82 + x119 <= 1
 clq630: x19 + x39 + x144 <= 1
 clq631: x38 + x52 + x65 <= 1
 clq632: x54 + x81 + x137 + x147 <= 1
 clq633: x24 + x25 + x130 <= 1
 clq634: x13 + x33 + x113 + x147 <= 1
 clq635: x40 + x50 + x119 <= 1
 clq636: x13 + x33 + x84 + x140 <= 1
 clq637: x30 + x34 + x40 + x56 <= 1
 clq638: x26 + x54 + x147 <= 1
 clq639: x12 + x75 + x114 + x138 <= 1
 clq640: x15 + x37 + x48 + x149 <= 1
 clq641: x32 + x41 + x105 <= 1
 clq642: x19 + x31 + x135 <= 1
 clq643: x94 + x130 + x137 + x141 <= 1
 clq644: x2 + x4 + x124 <= 1
 clq645: x40 + x66 + x80 + x90 + x104 <= 1
 clq646: x50 + x72 + x83 + x142 <= 1
 clq647: x62 + x90 + x111 <= 1
 clq648: x59 + x101 + x114 + x139 + x142 <= 1
 clq649: x16 + x96 + x125 + x127 <= 1
 clq650: x36 + x67 + x68 <= 1
 clq651: x3 + x9 + x70 + x80 <= 1
 clq652: x56 + x78 + x90 + x130 <= 1
 clq653: x22 + x66 + x80 <= 1
 clq654: x50 + x72 + x144 + x145 <= 1
 clq655: x86 + x108 + x133 + x141 <= 1
 clq656: x45 + x82 + x105 + x150 <= 1
 clq657: x8 + x9 + x35 + x44 <= 1
 clq658: x41 + x76 + x117 <= 1
 clq659: x56 + x61 + x70 + x124 <= 1
 clq660: x6 + x42 + x95 <= 1
 clq661: x40 + x56 + x90 + x130 <= 1
 clq662: x24 + x66 + x98 + x110 <= 1
 clq663: x17 + x57 + x81 + x122 <= 1
 clq664: x23 + x34 + x75 + x127 <= 1
 clq665: x20 + x107 + x141 + x144 <= 1
 clq666: x27 + x104 + x108 + x133 <= 1
 clq667: x21 + x40 + x114 + x138 <= 1
 clq668: x42 + x95 + x96 + x111 <= 1
 clq669: x131 + x143 + x147 <= 1
 clq670: x32 + x50 + x78 <= 1
 clq671: x76 + x95 + x140 <= 1
 clq672: x6 + x14 + x86 <= 1
 clq673: x20 + x32 + x112 <= 1
 clq674: x20 + x107 + x132 <= 1
 clq675: x6 + x13 + x31 + x138 <= 1
 clq676: x22 + x43 + x47 <= 1
 clq677: x53 + x56 + x63 + x126 <= 1
 clq678: x27 + x78 + x123 <= 1
 clq679: x54 + x91 + x94 + x137 <= 1
 clq680: x29 + x72 + x83 <= 1
 clq681: x30 + x33 + x54 + x117 <= 1
 clq682: x19 + x79 + x117 <= 1
 clq683: x41 + x76 + x112 <= 1
 clq684: x2 + x33 + x39 + x132 <= 1
 clq685: x12 + x114 + x138 + x147 <= 1
 clq686: x80 + x94 + x96 + x141 <= 1
 clq687: x92 + x107 + x143 <= 1
 clq688: x16 + x35 + x108 + x138 <= 1
 clq689: x28 + x77 + x87 <= 1
 clq690: x23 + x67 + x85 + x144 <= 1
 clq691: x18 + x72 + x103 + x150 <= 1
 clq692: x69 + x123 + x147 <= 1
 clq693: x37 + x61 + x148 <= 1
 clq694: x1 + x62 + x73 + x133 <= 1
 clq695: x50 + x71 + x117 <= 1
 clq696: x11 + x19 + x32 + x120 <= 1
 clq697: x34 + x40 + x56 + x63 + x87 <= 1
 clq698: x3 + x30 + x54 + x94 <= 1
 clq699: x39 + x60 + x75 + x98 <= 1
 clq700: x46 + x49 + x58 + x139 <= 1
 clq701: x33 + x64 + x77 <= 1
 clq702: x16 + x68 + x96 <= 1
 clq703: x22 + x46 + x49 <= 1
 clq704: x23 + x75 + x140 <= 1
 clq705: x45 + x105 + x109 + x119 <= 1
 clq706: x5 + x35 + x53 + x99 <= 1
 clq707: x11 + x89 + x107 <= 1
 clq708: x40 + x79 + x85 <= 1
 clq709: x77 + x113 + x148 <= 1
 clq710: x36 + x47 + x106 <= 1
 clq711: x43 + x93 + x101 + x149 <= 1
 clq712: x16 + x52 + x76 + x101 <= 1
 clq713: x15 + x48 + x142 <= 1
 clq714: x80 + x81 + x96 <= 1
 clq715: x17 + x81 + x100 + x122 + x135 <= 1
 clq716: x8 + x51 + x143 <= 1
 clq717: x75 + x106 + x150 <= 1
 clq718: x59 + x65 + x103 <= 1
 clq719: x16 + x22 + x44 + x98 <= 1
 clq720: x2 + x33 + x111 + x113 + x120 <= 1
 clq721: x2 + x22 + x33 + x120 <= 1
 clq722: x67 + x89 + x131 + x139 <= 1
 clq723: x41 + x64 + x66 + x143 <= 1
 clq724: x50 + x62 + x141 + x144 <= 1
 clq725: x30 + x77 + x94 + x137 <= 1
 clq726: x18 + x63 + x98 <= 1
 clq727: x31 + x90 + x106 + x125 <= 1
 clq728: x8 + x56 + x82 <= 1
 clq729: x2 + x88 + x92 + x102 <= 1
 clq730: x95 + x96 + x126 + x148 <= 1
 clq731: x7 + x43 + x65 + x137 <= 1
 clq732: x30 + x71 + x84 <= 1
 clq733: x12 + x67 + x137 <= 1
 clq734: x70 + x71 + x124 + x127 <= 1
 clq735: x13 + x48 + x118 <= 1
 clq736: x10 + x30 + x54 + x92 <= 1
 clq737: x52 + x76 + x80 <= 1
 clq738: x80 + x90 + x96 + x104 <= 1
 clq739: x47 + x102 + x106 <= 1
 clq740: x21 + x80 + x96 <= 1
 clq741: x108 + x116 + x138 <= 1
 clq742: x3 + x56 + x70 + x80 <= 1
 clq743: x61 + x72 + x79 <= 1
 clq744: x64 + x65 + x134 <= 1
 clq745: x2 + x5 + x49 + x116 <= 1
 clq746: x32 + x95 + x146 + x147 <= 1
 clq747: x22 + x47 + x56 + x126 <= 1
 clq748: x14 + x82 + x146 <= 1
 clq749: x7 + x44 + x98 + x130 <= 1
 clq750: x38 + x100 + x112 <= 1
 clq751: x28 + x66 + x104 + x143 <= 1
 clq752: x35 + x44 + x83 + x121 <= 1
 clq753: x51 + x78 + x87 + x133 <= 1
 clq754: x7 + x61 + x72 + x116 + x131 <= 1
 clq755: x20 + x52 + x80 <= 1
 clq756: x23 + x67 + x92 + x127 <= 1
 clq757: x1 + x44 + x130 + x146 <= 1
 clq758: x60 + x67 + x68 + x85 <= 1
 clq759: x10 + x30 + x54 + x76 <= 1
 clq760: x96 + x126 + x141 <= 1
 clq761: x9 + x48 + x97 <= 1
 clq762: x13 + x66 + x83 + x136 <= 1
 clq763: x30 + x35 + x36 <= 1
 clq764: x20 + x34 + x46 <= 1
 clq765: x18 + x73 + x121 + x131 + x139 <= 1
 clq766: x48 + x50 + x124 <= 1
 clq767: x48 + x57 + x118 <= 1
 clq768: x71 + x138 + x147 <= 1
 clq769: x15 + x112 + x134 <= 1
 clq770: x1 + x10 + x105 <= 1
 clq771: x21 + x129 + x146 <= 1
 clq772: x35 + x82 + x84 + x125 <= 1
 clq773: x22 + x74 + x131 <= 1
 clq774: x17 + x62 + x73 + x139 <= 1
 clq775: x39 + x66 + x98 + x119 <= 1
 clq776: x3 + x129 + x141 <= 1
 clq777: x34 + x63 + x128 <= 1
 clq778: x31 + x86 + x133 <= 1
 clq779: x45 + x99 + x105 + x119 <= 1
 clq780: x55 + x60 + x104 + x145 <= 1
 clq781: x62 + x88 + x125 + x144 <= 1
 clq782: x85 + x102 + x109 <= 1
 clq783: x4 + x25 + x88 + x130 <= 1
 clq784: x64 + x65 + x95 <= 1
 clq785: x23 + x73 + x140 <= 1
 clq786: x30 + x60 + x75 + x98 + x104 <= 1
 clq787: x21 + x46 + x64 + x134 + x143 <= 1
 clq788: x64 + x115 + x122 + x134 <= 1
 clq789: x14 + x36 + x106 <= 1
 clq790: x26 + x37 + x65 + x77 <= 1
 clq791: x9 + x68 + x80 + x110 <= 1
 clq792: x3 + x87 + x94 + x148 <= 1
 clq793: x40 + x49 + x80 <= 1
 clq794: x15 + x37 + x48 + x127 <= 1
 clq795: x48 + x55 + x78 + x139 <= 1
 clq796: x51 + x71 + x87 + x134 <= 1
 clq797: x14 + x25 + x88 + x104 <= 1
 clq798: x96 + x123 + x141 <= 1
 clq799: x5 + x87 + x94 + x104 <= 1
 clq800: x79 + x84 + x148 <= 1
 clq801: x24 + x90 + x130 <= 1
 clq802: x43 + x60 + x85 + x122 <= 1
 clq803: x73 + x121 + x136 <= 1
 clq804: x2 + x4 + x49 <= 1
 clq805: x39 + x41 + x60 <= 1
 clq806: x25 + x38 + x123 <= 1
 clq807: x29 + x108 + x113 <= 1
 clq808: x7 + x72 + x98 + x147 <= 1
 clq809: x16 + x52 + x76 + x150 <= 1
 clq810: x29 + x67 + x68 + x111 <= 1
 clq811: x62 + x80 + x90 <= 1
 clq812: x28 + x42 + x76 <= 1
 clq813: x63 + x82 + x131 <= 1
 clq814: x6 + x72 + x103 + x108 <= 1
 clq815: x7 + x19 + x62 <= 1
 clq816: x48 + x104 + x121 + x149 <= 1
 clq817: x45 + x65 + x91 <= 1
 clq818: x55 + x87 + x134 <= 1
 clq819: x43 + x63 + x65 + x142 <= 1
 clq820: x14 + x40 + x74 + x118 <= 1
 clq821: x12 + x119 + x123 <= 1
 clq822: x86 + x123 + x134 <= 1
 clq823: x89 + x94 + x118 + x131 <= 1
 clq824: x12 + x56 + x97 <= 1
 clq825: x30 + x54 + x92 + x137 <= 1
 clq826: x46 + x83 + x131 <= 1
 clq827: x22 + x49 + x80 + x96 <= 1
 clq828: x12 + x79 + x113 + x119 <= 1
 clq829: x11 + x55 + x74 + x78 + x90 <= 1
 clq830: x28 + x119 + x144 <= 1
 clq831: x101 + x114 + x115 + x142 <= 1
 clq832: x85 + x91 + x138 + x144 <= 1
 clq833: x47 + x73 + x106 + x128 <= 1
 clq834: x7 + x40 + x80 <= 1
 clq835: x89 + x113 + x131 <= 1
 clq836: x53 + x70 + x83 + x91 <= 1
 clq837: x9 + x38 + x137 <= 1
 clq838: x94 + x100 + x137 + x147 <= 1
 clq839: x21 + x30 + x89 + x113 <= 1
 clq840: x59 + x109 + x119 <= 1
 clq841: x73 + x124 + x133 <= 1
 clq842: x5 + x36 + x48 <= 1
 clq843: x20 + x34 + x56 + x80 <= 1
 clq844: x23 + x103 + x104 + x150 <= 1
 clq845: x23 + x24 + x27 + x93 <= 1
 clq846: x10 + x94 + x118 <= 1
 clq847: x90 + x96 + x104 + x143 <= 1
 clq848: x30 + x33 + x34 + x109 <= 1
 clq849: x25 + x39 + x88 + x119 + x144 <= 1
 clq850: x61 + x79 + x113 + x148 <= 1
 clq851: x20 + x105 + x123 + x136 <= 1
 clq852: x8 + x31 + x142 <= 1
 clq853: x26 + x51 + x99 <= 1
 clq854: x48 + x50 + x103 <= 1
 clq855: x19 + x33 + x64 + x134 <= 1
 clq856: x17 + x88 + x100 + x102 + x146 <= 1
 clq857: x20 + x33 + x39 + x132 <= 1
 clq858: x44 + x84 + x139 + x146 <= 1
 clq859: x82 + x93 + x105 <= 1
 clq860: x71 + x78 + x130 <= 1
 clq861: x15 + x60 + x142 <= 1
 clq862: x18 + x72 + x74 + x103 + x144 <= 1
 clq863: x12 + x107 + x144 + x147 <= 1
 clq864: x11 + x58 + x88 + x92 + x127 <= 1
 clq865: x41 + x112 + x126 <= 1
 clq866: x1 + x93 + x130 + x134 <= 1
 clq867: x25 + x38 + x125 <= 1
 clq868: x5 + x18 + x140 + x149 <= 1
 clq869: x22 + x46 + x126 <= 1
 clq870: x52 + x60 + x74 <= 1
 clq871: x22 + x88 + x119 + x144 <= 1
 clq872: x11 + x33 + x54 + x78 <= 1
 clq873: x29 + x53 + x149 <= 1
 clq874: x33 + x54 + x136 + x147 <= 1
 clq875: x12 + x79 + x122 <= 1
 clq876: x60 + x67 + x89 + x139 <= 1
 clq877: x2 + x50 + x92 + x102 <= 1
 clq878: x24 + x27 + x51 <= 1
 clq879: x24 + x58 + x70 + x98 <= 1
 clq880: x56 + x61 + x82 <= 1
 clq881: x34 + x70 + x106 + x128 <= 1
 clq882: x24 + x35 + x58 + x92 <= 1
 clq883: x35 + x40 + x99 + x130 <= 1
 clq884: x92 + x107 + x150 <= 1
 clq885: x9 + x48 + x118 <= 1
 clq886: x37 + x61 + x68 <= 1
 clq887: x6 + x94 + x106 + x141 <= 1
 clq888: x10 + x23 + x103 <= 1
 clq889: x23 + x82 + x146 <= 1
 clq890: x36 + x48 + x50 <= 1
 clq891: x13 + x20 + x98 + x113 <= 1
 clq892: x11 + x33 + x38 + x58 <= 1
 clq893: x1 + x62 + x93 + x134 <= 1
 clq894: x8 + x21 + x113 <= 1
Bounds
 0 <= x1 <= 1
 0 <= x2 <= 1
 0 <= x3 <= 1
 0 <= x4 <= 1
 0 <= x5 <= 1
 0 <= x6 <= 1
 0 <= x7 <= 1
 0 <= x8 <= 1
 0 <= x9 <= 1
 0 <= x10 <= 1
 0 <= x11 <= 1
 0 <= x12 <= 1
 0 <= x13 <= 1
 0 <= x14 <= 1
 0 <= x15 <= 1
 0 <= x16 <= 1
 0 <= x17 <= 1
 0 <= x18 <= 1
 0 <= x19 <= 1
 0 <= x20 <= 1
 0 <= x21 <= 1
 0 <= x22 <= 1
 0 <= x23 <= 1
 0 <= x24 <= 1
 0 <= x25 <= 1
 0 <= x26 <= 1
 0 <= x27 <= 1
 0 <= x28 <= 1
 0 <= x29 <= 1
 0 <= x30 <= 1
 0 <= x31 <= 1
 0 <= x32 <= 1
 0 <= x33 <= 1
 0 <= x34 <= 1
 0 <= x35 <= 1
 0 <= x36 <= 1
 0 <= x37 <= 1
 0 <= x38 <= 1
 0 <= x39 <= 1
 0 <= x40 <= 1
 0 <= x41 <= 1
 0 <= x42 <= 1
 0 <= x43 <= 1
 0 <= x44 <= 1
 0 <= x45 <= 1
 0 <= x46 <= 1
 0 <= x47 <= 1
 0 <= x48 <= 1
 0 <= x49 <= 1
 0 <= x50 <= 1
 0 <= x51 <= 1
 0 <= x52 <= 1
 0 <= x53 <= 1
 0 <= x54 <= 1
 0 <= x55 <= 1
 0 <= x56 <= 1
 0 <= x57 <= 1
 0 <= x58 <= 1
 0 <= x59 <= 1
 0 <= x60 <= 1
 0 <= x61 <= 1
 0 <= x62 <= 1
 0 <= x63 <= 1
 0 <= x64 <= 1
 0 <= x65 <= 1
 0 <= x66 <= 1
 0 <= x67 <= 1
 0 <= x68 <= 1
 0 <= x69 <= 1
 0 <= x70 <= 1
 0 <= x71 <= 1
 0 <= x72 <= 1
 0 <= x73 <= 1
 0 <= x74 <= 1
 0 <= x75 <= 1
 0 <= x76 <= 1
 0 <= x77 <= 1
 0 <= x78 <= 1
 0 <= x79 <= 1
 0 <= x80 <= 1
 0 <= x81 <= 1
 0 <= x82 <= 1
 0 <= x83 <= 1
 0 <= x84 <= 1
 0 <= x85 <= 1
 0 <= x86 <= 1
 0 <= x87 <= 1
 0 <= x88 <= 1
 0 <= x89 <= 1
 0 <= x90 <= 1
 0 <= x91 <= 1
 0 <= x92 <= 1
 0 <= x93 <= 1
 0 <= x94 <= 1
 0 <= x95 <= 1
 0 <= x96 <= 1
 0 <= x97 <= 1
 0 <= x98 <= 1
 0 <= x99 <= 1
 0 <= x100 <= 1
 0 <= x101 <= 1
 0 <= x102 <= 1
 0 <= x103 <= 1
 0 <= x104 <= 1
 0 <= x105 <= 1
 0 <= x106 <= 1
 0 <= x107 <= 1
 0 <= x108 <= 1
 0 <= x109 <= 1
 0 <= x110 <= 1
 0 <= x111 <= 1
 0 <= x112 <= 1
 0 <= x113 <= 1
 0 <= x114 <= 1
 0 <= x115 <= 1
 0 <= x116 <= 1
 0 <= x117 <= 1
 0 <= x118 <= 1
 0 <= x119 <= 1
 0 <= x120 <= 1
 0 <= x121 <= 1
 0 <= x122 <= 1
 0 <= x123 <= 1
 0 <= x124 <= 1
 0 <= x125 <= 1
 0 <= x126 <= 1
 0 <= x127 <= 1
 0 <= x128 <= 1
 0 <= x129 <= 1
 0 <= x130 <= 1
 0 <= x131 <= 1
 0 <= x132 <= 1
 0 <= x133 <= 1
 0 <= x134 <= 1
 0 <= x135 <= 1
 0 <= x136 <= 1
 0 <= x137 <= 1
 0 <= x138 <= 1
 0 <= x139 <= 1
 0 <= x140 <= 1
 0 <= x141 <= 1
 0 <= x142 <= 1
 0 <= x143 <= 1
 0 <= x144 <= 1
 0 <= x145 <= 1
 0 <= x146 <= 1
 0 <= x147 <= 1
 0 <= x148 <= 1
 0 <= x149 <= 1
 0 <= x150 <= 1
Binaries
 x1  x2  x3  x4  x5  x6  x7  x8  x9  x10  x11  x12  x13  x14  x15  x16  x17 
 x18  x19  x20  x21  x22  x23  x24  x25  x26  x27  x28  x29  x30  x31  x32 
 x33  x34  x35  x36  x37  x38  x39  x40  x41  x42  x43  x44  x45  x46  x47 
 x48  x49  x50  x51  x52  x53  x54  x55  x56  x57  x58  x59  x60  x61  x62 
 x63  x64  x65  x66  x67  x68  x69  x70  x71  x72  x73  x74  x75  x76  x77 
 x78  x79  x80  x81  x82  x83  x84  x85  x86  x87  x88  x89  x90  x91  x92 
 x93  x94  x95  x96  x97  x98  x99  x100  x101  x102  x103  x104  x105  x106 
 x107  x108  x109  x110  x111  x112  x113  x114  x115  x116  x117  x118  x119 
 x120  x121  x122  x123  x124  x125  x126  x127  x128  x129  x130  x131  x132 
 x133  x134  x135  x136  x137  x138  x139  x140  x141  x142  x143  x144  x145 
 x146  x147  x148  x149  x150 
End
